Traveling Salesman Problem/TSP_generados/Aleatorio1620390955_10.tsp
NAME: Aleatorio1620390955_10.tsp
COMMENT: Randomly generated scenario
TYPE: TSP
DIMENSION: 10
EDGE_WEIGHT_TYPE: ATT
NODE_COORD_SECTION
1 15.59 25.37
2 8.3 28.12
3 15.96 41.87
4 16.87 39.33
5 39.91 8.3
6 47.99 7.54
7 31.1 11.8
8 35.32 19.43
9 35.79 6.56
10 5.21 42.76
