Traveling Salesman Problem/TSP_generados/Aleatorio1620390955_10.opt.tour
NAME: Aleatorio1620390955_10.opt.tour
COMMENT: Optimal solution for Aleatorio1620390955_10 (120.97980600383319)
TYPE: TOUR
DIMENSION: 10
TOUR_SECTION
1 7 9 5 6 8 4 3 10 2
-1
EOF
